(set-logic HORN)
(declare-datatypes ((Bool_12 0)) (((false_12 ) (true_12 ))))
(declare-fun diseqBool_5 (Bool_12 Bool_12) Bool)
(declare-fun isfalse_5 (Bool_12) Bool)
(declare-fun istrue_5 (Bool_12) Bool)
(assert (isfalse_5 false_12))
(assert (istrue_5 true_12))
(assert (diseqBool_5 false_12 true_12))
(assert (diseqBool_5 true_12 false_12))
(declare-fun and_12 (Bool_12 Bool_12 Bool_12) Bool)
(declare-fun or_12 (Bool_12 Bool_12 Bool_12) Bool)
(declare-fun hence_12 (Bool_12 Bool_12 Bool_12) Bool)
(declare-fun not_12 (Bool_12 Bool_12) Bool)
(assert (and_12 false_12 false_12 false_12))
(assert (and_12 false_12 true_12 false_12))
(assert (and_12 false_12 false_12 true_12))
(assert (and_12 true_12 true_12 true_12))
(assert (or_12 false_12 false_12 false_12))
(assert (or_12 true_12 true_12 false_12))
(assert (or_12 true_12 false_12 true_12))
(assert (or_12 true_12 true_12 true_12))
(assert (hence_12 true_12 false_12 false_12))
(assert (hence_12 false_12 true_12 false_12))
(assert (hence_12 true_12 false_12 true_12))
(assert (hence_12 true_12 true_12 true_12))
(assert (not_12 true_12 false_12))
(assert (not_12 false_12 true_12))
(declare-datatypes ((Nat_23 0)) (((Z_65 ) (S_23 (projS_22 Nat_23)))))
(declare-fun diseqNat_23 (Nat_23 Nat_23) Bool)
(declare-fun projS_23 (Nat_23 Nat_23) Bool)
(declare-fun isZ_23 (Nat_23) Bool)
(declare-fun isS_23 (Nat_23) Bool)
(assert (forall ((x_717 Nat_23))
	(projS_23 x_717 (S_23 x_717))))
(assert (isZ_23 Z_65))
(assert (forall ((x_719 Nat_23))
	(isS_23 (S_23 x_719))))
(assert (forall ((x_720 Nat_23))
	(diseqNat_23 Z_65 (S_23 x_720))))
(assert (forall ((x_721 Nat_23))
	(diseqNat_23 (S_23 x_721) Z_65)))
(assert (forall ((x_722 Nat_23) (x_723 Nat_23))
	(=> (diseqNat_23 x_722 x_723)
	    (diseqNat_23 (S_23 x_722) (S_23 x_723)))))
(declare-datatypes ((list_13 0)) (((nil_13 ) (cons_13 (head_26 Nat_23) (tail_26 list_13)))))
(declare-fun diseqlist_13 (list_13 list_13) Bool)
(declare-fun head_27 (Nat_23 list_13) Bool)
(declare-fun tail_27 (list_13 list_13) Bool)
(declare-fun isnil_13 (list_13) Bool)
(declare-fun iscons_13 (list_13) Bool)
(assert (forall ((x_725 Nat_23) (x_726 list_13))
	(head_27 x_725 (cons_13 x_725 x_726))))
(assert (forall ((x_725 Nat_23) (x_726 list_13))
	(tail_27 x_726 (cons_13 x_725 x_726))))
(assert (isnil_13 nil_13))
(assert (forall ((x_728 Nat_23) (x_729 list_13))
	(iscons_13 (cons_13 x_728 x_729))))
(assert (forall ((x_730 Nat_23) (x_731 list_13))
	(diseqlist_13 nil_13 (cons_13 x_730 x_731))))
(assert (forall ((x_732 Nat_23) (x_733 list_13))
	(diseqlist_13 (cons_13 x_732 x_733) nil_13)))
(assert (forall ((x_734 Nat_23) (x_735 list_13) (x_736 Nat_23) (x_737 list_13))
	(=> (diseqNat_23 x_734 x_736)
	    (diseqlist_13 (cons_13 x_734 x_735) (cons_13 x_736 x_737)))))
(assert (forall ((x_734 Nat_23) (x_735 list_13) (x_736 Nat_23) (x_737 list_13))
	(=> (diseqlist_13 x_735 x_737)
	    (diseqlist_13 (cons_13 x_734 x_735) (cons_13 x_736 x_737)))))
(declare-fun x_688 (Bool_12 Nat_23 Nat_23) Bool)
(assert (forall ((x_694 Bool_12) (y_55 Nat_23) (x_690 Nat_23))
	(=> (x_688 x_694 x_690 y_55)
	    (x_688 x_694 (S_23 x_690) (S_23 y_55)))))
(assert (forall ((x_690 Nat_23))
	(x_688 false_12 (S_23 x_690) Z_65)))
(assert (forall ((z_66 Nat_23))
	(x_688 false_12 Z_65 (S_23 z_66))))
(assert (x_688 true_12 Z_65 Z_65))
(declare-fun count_1 (Nat_23 Nat_23 list_13) Bool)
(assert (forall ((x_701 Nat_23) (z_67 Nat_23) (ys_7 list_13) (x_691 Nat_23))
	(=>	(and (count_1 x_701 x_691 ys_7)
			(x_688 true_12 x_691 z_67))
		(count_1 (S_23 x_701) x_691 (cons_13 z_67 ys_7)))))
(assert (forall ((x_703 Nat_23) (z_67 Nat_23) (ys_7 list_13) (x_691 Nat_23))
	(=>	(and (count_1 x_703 x_691 ys_7)
			(x_688 false_12 x_691 z_67))
		(count_1 x_703 x_691 (cons_13 z_67 ys_7)))))
(assert (forall ((x_691 Nat_23))
	(count_1 Z_65 x_691 nil_13)))
(declare-fun x_692 (Nat_23 Nat_23 Nat_23) Bool)
(assert (forall ((x_707 Nat_23) (z_68 Nat_23) (y_57 Nat_23))
	(=> (x_692 x_707 z_68 y_57)
	    (x_692 (S_23 x_707) (S_23 z_68) y_57))))
(assert (forall ((x_708 Nat_23))
	(x_692 x_708 Z_65 x_708)))
(assert (forall ((x_709 Nat_23) (x_710 Nat_23) (x_711 Nat_23) (x_712 Nat_23) (n_5 Nat_23) (m_1 Nat_23) (xs_20 list_13))
	(=>	(and true
			(diseqNat_23 x_711 x_712)
			(count_1 x_709 n_5 xs_20)
			(count_1 x_710 n_5 (cons_13 m_1 nil_13))
			(x_692 x_711 x_709 x_710)
			(count_1 x_712 n_5 (cons_13 m_1 xs_20)))
		false)))
(check-sat)
